SCIP version 5.0.0 [precision: 8 byte] [memory: block] [mode: optimized] [LP solver: NONE] [GitHash: 3bbd232]
Copyright (C) 2002-2017 Konrad-Zuse-Zentrum fuer Informationstechnik Berlin (ZIB)

External codes: 
  Readline EditLine w  GNU library for command line editing (gnu.org/s/readline)
  CppAD 20160000.1     Algorithmic Differentiation of C++ algorithms developed by B. Bell (www.coin-or.org/CppAD)
  ZLIB 1.2.5           General purpose compression library by J. Gailly and M. Adler (zlib.net)
  GMP 6.1.2            GNU Multiple Precision Arithmetic Library developed by T. Granlund (gmplib.org)

user parameter file <scip.set> not found - using default parameters

read problem <../../Split_data/output/breast/1/1_sample_breast.logreg>
============

File name	:	../../Split_data/output/breast/1/1_sample_breast.logreg
Problem name 	:	1_sample_breast
Number of data	:	155
Number of var	:	33
The given data has linear independence

[dim=1] time: 0.003822
[dim=2] time: 0.00806
[dim=3] time: 0.011929
[dim=4] time: 0.015971
[dim=5] time: 0.019975
[dim=6] time: 0.024041
[dim=7] time: 0.030293
[dim=8] time: 0.034273
[dim=9] Time of forward = 0.037947sec.
AIC: 120.229
k: 8

[dim=33] time: 0.012499
[dim=32] time: 0.02145
[dim=31] time: 0.033692
[dim=30] time: 0.044668
[dim=29] time: 0.055048
[dim=28] time: 0.065078
[dim=27] time: 0.072497
[dim=26] time: 0.080042
[dim=25] time: 0.087249
[dim=24] time: 0.092928
[dim=23] time: 0.09987
[dim=22] Time of backward = 0.105077sec.
AIC: 112.271
k: 23
